100 275082
15 9 73 84 46 63 81 14 74 57 1 10 19 37 4 71 22 86 24 62 43 77 98 13 39 27 75 3 58 7 78 56 79 54 45 34 93 31 67 85 100 26 76 90 61 97 5 42 11 60 95 28 41 44 40 47 96 23 91 66 88 65 83 69 52 59 38 8 35 82 50 68 53 72 25 51 12 36 70 94 87 30 80 18 16 99 2 20 55 92 32 64 49 29 6 17 48 89 21 33 
